(set-info :source |printed by MathSAT|)
(declare-fun |.x{45}| () (Array Int Int))
(declare-fun |.x{49}| () (Array Int Int))
(declare-fun |.x{46}| () Int)
(declare-fun |.x{50}| () Int)
(declare-fun |.x{47}| () Int)
(declare-fun |.x{51}| () Int)
(declare-fun |.x{48}| () Int)
(declare-fun |.x{52}| () Int)
(declare-fun |.loc{3}| () Bool)
(declare-fun |.loc{5}| () Bool)
(declare-fun |.loc{4}| () Bool)
(declare-fun |.loc{6}| () Bool)
(define-fun .def_16 () Bool (! |.loc{3}| :next |.loc{5}|))
(define-fun .def_42 () Bool (not .def_16))
(define-fun .def_18 () Bool (! |.loc{4}| :next |.loc{6}|))
(define-fun .def_40 () Bool (not .def_18))
(define-fun .def_90 () Bool (and .def_40 .def_42))
(define-fun .def_14 () Int (! |.x{48}| :next |.x{52}|))
(define-fun .def_88 () Bool (= .def_14 0))
(define-fun .def_10 () Int (! |.x{46}| :next |.x{50}|))
(define-fun .def_87 () Bool (= .def_10 0))
(define-fun .def_89 () Bool (and .def_87 .def_88))
(define-fun .def_91 () Bool (! (and .def_89 .def_90) :init true))
(define-fun .def_8 () (Array Int Int) (! |.x{45}| :next |.x{49}|))
(define-fun .def_84 () Bool (= .def_8 |.x{49}|))
(define-fun .def_12 () Int (! |.x{47}| :next |.x{51}|))
(define-fun .def_83 () Bool (= .def_12 |.x{51}|))
(define-fun .def_85 () Bool (and .def_83 .def_84))
(define-fun .def_52 () Bool (= |.x{50}| 0))
(define-fun .def_33 () Bool (<= .def_12 .def_10))
(define-fun .def_67 () Bool (and .def_33 .def_52))
(define-fun .def_54 () Bool (= .def_14 |.x{52}|))
(define-fun .def_68 () Bool (and .def_54 .def_67))
(define-fun .def_73 () Bool (and .def_42 .def_68))
(define-fun .def_21 () Int (select .def_8 .def_10))
(define-fun .def_58 () Int (* (- 1) .def_21))
(define-fun .def_23 () Int (* (- 1) |.x{52}|))
(define-fun .def_59 () Int (+ .def_23 .def_58))
(define-fun .def_60 () Int (+ .def_14 .def_59))
(define-fun .def_61 () Bool (= .def_60 0))
(define-fun .def_29 () Int (* (- 1) |.x{50}|))
(define-fun .def_30 () Int (+ .def_10 .def_29))
(define-fun .def_31 () Bool (= .def_30 (- 1)))
(define-fun .def_62 () Bool (and .def_31 .def_61))
(define-fun .def_34 () Bool (not .def_33))
(define-fun .def_63 () Bool (and .def_34 .def_62))
(define-fun .def_72 () Bool (and .def_16 .def_63))
(define-fun .def_74 () Bool (or .def_72 .def_73))
(define-fun .def_75 () Bool (and |.loc{5}| .def_74))
(define-fun .def_76 () Bool (and .def_18 .def_75))
(define-fun .def_38 () Bool (not |.loc{5}|))
(define-fun .def_69 () Bool (and .def_38 .def_68))
(define-fun .def_70 () Bool (and .def_40 .def_69))
(define-fun .def_71 () Bool (and .def_16 .def_70))
(define-fun .def_77 () Bool (or .def_71 .def_76))
(define-fun .def_64 () Bool (and .def_38 .def_63))
(define-fun .def_65 () Bool (and .def_18 .def_64))
(define-fun .def_66 () Bool (and .def_42 .def_65))
(define-fun .def_78 () Bool (or .def_66 .def_77))
(define-fun .def_79 () Bool (and |.loc{6}| .def_78))
(define-fun .def_50 () Bool (and |.loc{5}| .def_33))
(define-fun .def_36 () Bool (not |.loc{6}|))
(define-fun .def_51 () Bool (and .def_36 .def_50))
(define-fun .def_53 () Bool (and .def_51 .def_52))
(define-fun .def_55 () Bool (and .def_53 .def_54))
(define-fun .def_56 () Bool (and .def_40 .def_55))
(define-fun .def_57 () Bool (and .def_42 .def_56))
(define-fun .def_80 () Bool (or .def_57 .def_79))
(define-fun .def_26 () Int (+ .def_23 .def_21))
(define-fun .def_27 () Int (+ .def_14 .def_26))
(define-fun .def_28 () Bool (= .def_27 0))
(define-fun .def_44 () Bool (and |.loc{5}| .def_28))
(define-fun .def_45 () Bool (and .def_31 .def_44))
(define-fun .def_46 () Bool (and .def_34 .def_45))
(define-fun .def_47 () Bool (and .def_36 .def_46))
(define-fun .def_48 () Bool (and .def_40 .def_47))
(define-fun .def_49 () Bool (and .def_16 .def_48))
(define-fun .def_81 () Bool (or .def_49 .def_80))
(define-fun .def_32 () Bool (and .def_28 .def_31))
(define-fun .def_35 () Bool (and .def_32 .def_34))
(define-fun .def_37 () Bool (and .def_35 .def_36))
(define-fun .def_39 () Bool (and .def_37 .def_38))
(define-fun .def_41 () Bool (and .def_39 .def_40))
(define-fun .def_43 () Bool (and .def_41 .def_42))
(define-fun .def_82 () Bool (or .def_43 .def_81))
(define-fun .def_86 () Bool (! (and .def_82 .def_85) :trans true))
(define-fun .def_94 () Bool (and .def_16 .def_18))
(define-fun .def_92 () Bool (not .def_88))
(define-fun .def_93 () Bool (and .def_33 .def_92))
(define-fun .def_95 () Bool (and .def_93 .def_94))
(define-fun .def_96 () Bool (! (not .def_95) :invar-property 0))
(assert true)
